NAME : sim51.78182.tour
COMMENT : Length = 78182
COMMENT : Found by LKH [Keld Helsgaun] Tue Sep 11 17:53:09 2018
TYPE : TOUR
DIMENSION : 51
TOUR_SECTION
1
14
22
28
18
6
23
2
3
31
49
10
20
11
5
46
16
8
7
30
39
37
48
9
29
47
36
43
4
15
45
32
12
35
41
33
27
21
44
26
34
24
50
13
17
25
38
51
42
40
19
-1
EOF
